(set-logic QF_S)
(declare-fun var0 () String)
(assert (RegexIn var0 (RegexConcat (RegexUnion (RegexPlus (RegexPlus (RegexUnion (RegexUnion (RegexPlus (RegexStar (RegexUnion (RegexPlus (RegexUnion (RegexUnion (Str2Reg "000") (Str2Reg "111")) (RegexUnion (Str2Reg "22") (Str2Reg "3")))) (RegexPlus (RegexUnion (RegexStar (Str2Reg "4")) (RegexStar (Str2Reg "55"))))))) (RegexPlus (RegexStar (RegexPlus (RegexStar (RegexStar (RegexPlus (Str2Reg "66")))))))) (RegexUnion (RegexPlus (RegexUnion (RegexUnion (RegexPlus (RegexUnion (RegexStar (Str2Reg "77")) (RegexStar (Str2Reg "88")))) (RegexPlus (RegexStar (RegexUnion (Str2Reg "999") (Str2Reg "aa"))))) (RegexUnion (RegexUnion (RegexUnion (RegexUnion (Str2Reg "b") (Str2Reg "cc")) (RegexUnion (Str2Reg "ddd") (Str2Reg "ee"))) (RegexUnion (RegexPlus (Str2Reg "f")) (RegexPlus (Str2Reg "g")))) (RegexUnion (RegexUnion (RegexPlus (Str2Reg "hhh")) (RegexPlus (Str2Reg "iii"))) (RegexUnion (RegexStar (Str2Reg "j")) (RegexStar (Str2Reg "kkk"))))))) (RegexPlus (RegexUnion (RegexPlus (RegexStar (RegexUnion (RegexUnion (Str2Reg "lll") (Str2Reg "mmm")) (RegexUnion (Str2Reg "nnn") (Str2Reg "ooo"))))) (RegexPlus (RegexUnion (RegexUnion (RegexStar (Str2Reg "p")) (RegexStar (Str2Reg "q"))) (RegexUnion (RegexUnion (Str2Reg "rr") (Str2Reg "s")) (RegexUnion (Str2Reg "tt") (Str2Reg "uu"))))))))))) (RegexPlus (RegexStar (RegexPlus (RegexStar (RegexPlus (RegexStar (RegexUnion (RegexUnion (RegexPlus (RegexPlus (Str2Reg "vv"))) (RegexPlus (RegexPlus (Str2Reg "www")))) (RegexUnion (RegexUnion (RegexUnion (Str2Reg "x") (Str2Reg "y")) (RegexUnion (Str2Reg "z") (Str2Reg "A"))) (RegexUnion (RegexStar (Str2Reg "BB")) (RegexStar (Str2Reg "CC")))))))))))) (RegexPlus (RegexUnion (RegexUnion (RegexPlus (RegexStar (RegexPlus (RegexStar (RegexStar (RegexStar (RegexPlus (RegexPlus (Str2Reg "DDD"))))))))) (RegexPlus (RegexUnion (RegexStar (RegexStar (RegexStar (RegexPlus (RegexUnion (RegexStar (Str2Reg "EE")) (RegexStar (Str2Reg "F"))))))) (RegexStar (RegexStar (RegexUnion (RegexStar (RegexPlus (RegexStar (Str2Reg "G")))) (RegexStar (RegexPlus (RegexPlus (Str2Reg "HHH")))))))))) (RegexUnion (RegexUnion (RegexPlus (RegexUnion (RegexStar (RegexPlus (RegexUnion (RegexStar (RegexStar (Str2Reg "III"))) (RegexStar (RegexPlus (Str2Reg "JJ")))))) (RegexStar (RegexUnion (RegexUnion (RegexUnion (RegexUnion (Str2Reg "K") (Str2Reg "L")) (RegexUnion (Str2Reg "MMM") (Str2Reg "N"))) (RegexUnion (RegexPlus (Str2Reg "OO")) (RegexPlus (Str2Reg "P")))) (RegexUnion (RegexStar (RegexUnion (Str2Reg "QQ") (Str2Reg "RR"))) (RegexStar (RegexUnion (Str2Reg "SS") (Str2Reg "T")))))))) (RegexPlus (RegexUnion (RegexUnion (RegexUnion (RegexPlus (RegexPlus (RegexPlus (Str2Reg "UU")))) (RegexPlus (RegexPlus (RegexUnion (Str2Reg "VVV") (Str2Reg "W"))))) (RegexUnion (RegexStar (RegexUnion (RegexPlus (Str2Reg "X")) (RegexPlus (Str2Reg "Y")))) (RegexStar (RegexUnion (RegexUnion (Str2Reg "ZZ") (Str2Reg "!!")) (RegexUnion (Str2Reg "\"") (Str2Reg "#")))))) (RegexUnion (RegexStar (RegexPlus (RegexPlus (RegexUnion (Str2Reg "$$") (Str2Reg "%%"))))) (RegexStar (RegexPlus (RegexStar (RegexPlus (Str2Reg "&&&"))))))))) (RegexUnion (RegexPlus (RegexPlus (RegexUnion (RegexUnion (RegexPlus (RegexStar (RegexStar (Str2Reg "'")))) (RegexPlus (RegexStar (RegexStar (Str2Reg "((("))))) (RegexUnion (RegexUnion (RegexStar (RegexPlus (Str2Reg ")))"))) (RegexStar (RegexStar (Str2Reg "***")))) (RegexUnion (RegexStar (RegexStar (Str2Reg "+"))) (RegexStar (RegexPlus (Str2Reg ",,,")))))))) (RegexPlus (RegexPlus (RegexStar (RegexUnion (RegexPlus (RegexPlus (RegexPlus (Str2Reg "--")))) (RegexPlus (RegexPlus (RegexStar (Str2Reg "..")))))))))))))))
(assert (<= 15 (Length var0)))
(check-sat)